105592.0
2056
1 2 3 4 5 7 8 9 10 11 12 13 14 15 16 17 18 19 20 21 23 24 25 26 27 28 30 32 33 34 36 38 39 40 41 42 44 45 46 47 48 49 50 51 54 55 56 58 60 61 63 64 66 67 68 69 70 71 72 73 75 76 77 78 79 81 83 86 88 89 90 91 93 94 95 96 99 